(set-logic BV) (define-fun origCir ((n325 Bool) (n365 Bool) (n268 Bool) (n167 Bool) (n373 Bool) (i_24 Bool)) Bool (and (and (and n373 (not (xor (and n268 n167) (not (and n365 n325))))) (xor (and (not (xor (and n268 n167) (not (and n365 n325)))) (and n365 n325)) (not (and n365 n325)))) i_24)) (synth-fun skel ((n325 Bool) (n365 Bool) (n268 Bool) (n167 Bool) (n373 Bool) (i_24 Bool)) Bool) (declare-var n325 Bool) (declare-var n365 Bool) (declare-var n268 Bool) (declare-var n167 Bool) (declare-var n373 Bool) (declare-var i_24 Bool) (constraint (= (origCir n325 n365 n268 n167 n373 i_24) (skel n325 n365 n268 n167 n373 i_24))) (check-synth)
